instances/pdptw_sl_2016/R12_6_6.txt
[Vehicles]
1 20 1
2 20 1
3 20 0
4 20 0
5 20 0
6 19 1

[Requests]
2 1
3 2
4 2
5 1
6 1
7 2
8 1
9 1
10 1
11 2
12 1
13 2

[Fixed Lines]
26 28 30 60 90 120 150 180 210 240 270 300 330 360 390 420 450 480 510 540 570 |
28 26 30 60 90 120 150 180 210 240 270 300 330 360 390 420 450 480 510 540 570 |
27 28 30 60 90 120 150 180 210 240 270 300 330 360 390 420 450 480 510 540 570 |
28 27 30 60 90 120 150 180 210 240 270 300 330 360 390 420 450 480 510 540 570 |
26 27 30 60 90 120 150 180 210 240 270 300 330 360 390 420 450 480 510 540 570 |
27 26 30 60 90 120 150 180 210 240 270 300 330 360 390 420 450 480 510 540 570 |

[Nodes]
0 0 600 0
1 0 600 0
2 92 149 2
3 219 257 2
4 247 295 1
5 0 78 1
6 196 284 3
7 5 52 1
8 161 213 2
9 0 65 2
10 117 194 1
11 301 382 1
12 78 154 3
13 157 234 3
14 440 506 1
15 233 306 1
16 449 521 3
17 407 465 3
18 232 273 3
19 0 58 3
20 371 424 2
21 332 400 1
22 421 469 3
23 458 535 3
24 430 471 2
25 461 529 1
26 0 600 1
27 0 600 1
28 0 600 1

[Positions]
40 90
170 100
34 153
85 18
60 22
37 120
62 77
49 73
81 91
189 111
133 46
128 168
82 14
197 4
153 159
58 29
105 108
137 12
58 64
58 71
73 34
29 21
15 54
147 140
36 159
3 185
25 30
106 154
178 24
