instances/pdptw_sl_sol/PDPTW-SL Solutions Homogeneous costs/3SLs/R12_6_6.sol
Objective function value: 822.6411478955179

Vehicle 6: 0 (0.0)    7 (20.0)    19 (32.22)    6 (199.0)    18 (235.0)    33 (390.15)    21 (401.0)    34 (419.11)    22 (448.11)    0 (600.0)    
Vehicle 5: 1 (0.0)    9 (23.0)    13 (160.0)    57 (188.59)    61 (189.59)    53 (419.61)    17 (465.33)    1 (600.0)    
Vehicle 4: 1 (0.0)    8 (163.0)    3 (259.0)    4 (296.0)    15 (304.28)    20 (373.0)    16 (456.62)    1 (600.0)    
Vehicle 2: 0 (0.0)    5 (31.0)    2 (94.0)    41 (167.01)    11 (302.0)    14 (441.0)    23 (463.92)    0 (600.0)    
Vehicle 1: 0 (0.0)    12 (89.0)    10 (150.21)    46 (262.53)    49 (359.61)    24 (432.0)    25 (475.01)    0 (600.0)    

Scheduled lines' departures:

Request 9 from transfer node 28(57) to 26(33) at time 210 travel time 153.12
Request 5 from transfer node 27(41) to 28(53) at time 270 travel time 148.61
Request 13 from transfer node 28(61) to 27(49) at time 210 travel time 148.61
Request 10 from transfer node 27(46) to 26(34) at time 270 travel time 148.11

#Let transfer node X(x), where X is the physical transfer node and x is its replication related to request y. Routing considers replicated transfer nodes only, and not physical ones.